(assert (forall ((pkt_0_4_6_0  Int  )(state_group_0_state_0_5_7_0  Int  )(state_group_0_state_1_6_8_0  Int  )) (let ((_n0 state_group_0_state_1_6_8_0 ))
(let ((_n1 state_group_0_state_0_5_7_0 ))
(let ((_n2 true ))
(let ((_n3 (+   _n1   (ite  _n2  1 0) ) ))
(let ((_n4 (ite (=  _n0  0)  _n3   _n1  ) ))
(let ((_n5 (<   _n0   (ite  _n2  1 0) ) ))
(let ((_n6 false ))
(let ((_n7 (ite  _n5   (ite  _n6  1 0)   _n0  ) ))
(let ((_n8 (<   _n7   (ite  _n2  1 0) ) ))
(let ((_n9 (ite  _n5   _n6   _n8  ) ))
(let ((_n10 (not  _n9 ) ))
(let ((_n11 (or   _n10   _n5 ) ))
(let ((_n12 1001 ))
(let ((_n13 (ite  _n11   (ite  _n6  1 0)   _n0  ) ))
(let ((_n14 (=   _n13   _n12 ) ))
(let ((_n15 (ite  _n11   _n6   _n14  ) ))
(let ((_n16 (or   _n15   _n11 ) ))
(let ((_n17 2 ))
(let ((_n18 (ite  _n16   (ite  _n6  1 0)   _n17  ) ))
(let ((_n19 (ite  _n16   _n1   (ite  _n6  1 0)  ) ))
(let ((_n20 (+   _n19   _n18 ) ))
(let ((_n21 (not  _n15 ) ))
(let ((_n22 (or   _n21   _n11 ) ))
(let ((_n23 (ite  _n22   (ite  _n6  1 0)   _n17  ) ))
(let ((_n24 pkt_0_4_6_0 ))
(let ((_n25 (ite  _n22   (ite  _n6  1 0)   _n24  ) ))
(let ((_n26 (+   _n25   _n23 ) ))
(let ((_n27 (ite  _n22   (ite  _n6  1 0)   _n26  ) ))
(let ((_n28 (+   _n1   _n27 ) ))
(let ((_n29 (ite (=  (ite  _n15  1 0)  1)  _n28   _n20  ) ))
(let ((_n30 (ite (=  (ite  _n9  1 0)  1)  _n29   _n1  ) ))
(let ((_n31 (ite  _n5   _n24   (ite  _n6  1 0)  ) ))
(let ((_n32 3 ))
(let ((_n33 (<   _n32   _n31 ) ))
(let ((_n34 (and   _n5   _n33 ) ))
(let ((_n35 (not  _n5 ) ))
(let ((_n36 (or   _n34   _n35 ) ))
(let ((_n37 (not  _n36 ) ))
(let ((_n38 (+   _n1   (ite  _n37  1 0) ) ))
(let ((_n39 (and   _n34   _n5 ) ))
(let ((_n40 999 ))
(let ((_n41 (ite  _n39   _n40   (ite  _n6  1 0)  ) ))
(let ((_n42 (-  _n41 )))
(let ((_n43 1000 ))
(let ((_n44 (ite  _n39   _n43   (ite  _n6  1 0)  ) ))
(let ((_n45 (+   _n44   _n42 ) ))
(let ((_n46 (ite  _n39   _n45   (ite  _n6  1 0)  ) ))
(let ((_n47 (+   _n1   _n46 ) ))
(let ((_n48 (ite (=  (ite  _n34  1 0)  1)  _n47   _n38  ) ))
(let ((_n49 (ite (=  (ite  _n5  1 0)  1)  _n48   _n30  ) ))
(let ((_n50 (=   _n49   _n4 ) ))
(let ((_n52 (ite (=  _n1  999)  (ite  _n2  1 0)   _n0  ) ))
(let ((_n53 (ite (=  _n0  0)  _n52   _n0  ) ))
(let ((_n54 (ite  _n16   (ite  _n6  1 0)   _n24  ) ))
(let ((_n55 (+   _n0   _n54 ) ))
(let ((_n56 998 ))
(let ((_n57 (ite  _n22   (ite  _n6  1 0)   _n56  ) ))
(let ((_n58 (ite  _n22   (ite  _n6  1 0)   _n12  ) ))
(let ((_n59 (+   _n58   _n57 ) ))
(let ((_n60 (ite  _n22   (ite  _n6  1 0)   _n59  ) ))
(let ((_n61 (+   _n0   _n60 ) ))
(let ((_n62 (ite (=  (ite  _n15  1 0)  1)  _n61   _n55  ) ))
(let ((_n63 (ite (=  (ite  _n9  1 0)  1)  _n62   _n0  ) ))
(let ((_n64 (+   _n0   (ite  _n39  1 0) ) ))
(let ((_n65 (ite (=  (ite  _n34  1 0)  1)  _n64   _n0  ) ))
(let ((_n66 (ite (=  (ite  _n5  1 0)  1)  _n65   _n63  ) ))
(let ((_n67 (=   _n66   _n53 ) ))
(let ((_n69 (ite (=  _n24  0)  _n24   (ite  _n6  1 0)  ) ))
(let ((_n70 (ite (=  _n24  0)  _n69   _n24  ) ))
(let ((_n71 (=   _n70   _n24 ) ))
(implies  (and (and (>= state_group_0_state_1_6_8_0 0) (< state_group_0_state_1_6_8_0 1024 ))  (and (and (>= state_group_0_state_0_5_7_0 0) (< state_group_0_state_0_5_7_0 1024 ))  (and (>= pkt_0_4_6_0 0) (< pkt_0_4_6_0 1024 )) ) )   (and  _n50  _n67  _n71 )  )))))))))))))))))))))))))))))))))))))))))))))))))))))))))))))))))))))))))
(check-sat)
(get-model)
(exit)